 $CONTRL SCFTYP=UHF MULT=9 COORD=UNIQUE ICHARG=36 MAXIT=200 $END
 $CONTRL PP=READ ISPHER=+1 $END
 $SCF    DIRSCF=.TRUE. SHIFT=.TRUE. $END
 $GUESS  GUESS=HUCKEL $END
 $DATA
  Fe 2 O 10 Mg 26           
  C1
Fe 26.0   17.336  17.336  17.336
 S   3
  1        6.422000000        -0.3927882000
  2        1.826000000         0.7712643000
  3       0.7135000000         0.4920228000
 S   4
  1        6.422000000         0.1786877000
  2        1.826000000        -0.4194032000
  3       0.7135000000        -0.4568185000
  4       0.1021000000          1.103504800
 S   1
  1       0.3630000000E-01      1.000000000
 P   3
  1        19.48000000        -0.4702820000E-01
  2        2.389000000         0.6248841000
  3       0.7795000000         0.4722542000
 P   1
  1       0.7400000000E-01      1.000000000
 P   1
  1       0.2200000000E-01      1.000000000
 D   4
  1        37.08000000         0.3290000000E-01
  2        10.10000000         0.1787418000
  3        3.220000000         0.4487657000
  4       0.9628000000         0.5876361000
 D   1
  1       0.2262000000          1.000000000

Fe 26.0   19.503  15.169  17.336
 S   3
  1        6.422000000        -0.3927882000
  2        1.826000000         0.7712643000
  3       0.7135000000         0.4920228000
 S   4
  1        6.422000000         0.1786877000
  2        1.826000000        -0.4194032000
  3       0.7135000000        -0.4568185000
  4       0.1021000000          1.103504800
 S   1
  1       0.3630000000E-01      1.000000000
 P   3
  1        19.48000000        -0.4702820000E-01
  2        2.389000000         0.6248841000
  3       0.7795000000         0.4722542000
 P   1
  1       0.7400000000E-01      1.000000000
 P   1
  1       0.2200000000E-01      1.000000000
 D   4
  1        37.08000000         0.3290000000E-01
  2        10.10000000         0.1787418000
  3        3.220000000         0.4487657000
  4       0.9628000000         0.5876361000
 D   1
  1       0.2262000000          1.000000000

O   8.0   19.503  15.169  15.169
 S   6
  1        5484.671700         0.1831100000E-02
  2        825.2349500         0.1395010000E-01
  3        188.0469600         0.6844510000E-01
  4        52.96450000         0.2327143000
  5        16.89757000         0.4701930000
  6        5.799635300         0.3585209000
 L   3
  1        15.53961600        -0.1107775000         0.7087430000E-01
  2        3.599933600        -0.1480263000         0.3397528000
  3        1.013761800          1.130767000         0.7271586000
 L   1
  1       0.2700058000          1.000000000          1.000000000
 D   1
  1       0.800000000          1.00000000

O   8.0   19.503  15.169  19.503
 S   6
  1        5484.671700         0.1831100000E-02
  2        825.2349500         0.1395010000E-01
  3        188.0469600         0.6844510000E-01
  4        52.96450000         0.2327143000
  5        16.89757000         0.4701930000
  6        5.799635300         0.3585209000
 L   3
  1        15.53961600        -0.1107775000         0.7087430000E-01
  2        3.599933600        -0.1480263000         0.3397528000
  3        1.013761800          1.130767000         0.7271586000
 L   1
  1       0.2700058000          1.000000000          1.000000000
 D   1
  1       0.800000000          1.00000000

O   8.0   15.169  17.336  17.336
 S   6
  1        5484.671700         0.1831100000E-02
  2        825.2349500         0.1395010000E-01
  3        188.0469600         0.6844510000E-01
  4        52.96450000         0.2327143000
  5        16.89757000         0.4701930000
  6        5.799635300         0.3585209000
 L   3
  1        15.53961600        -0.1107775000         0.7087430000E-01
  2        3.599933600        -0.1480263000         0.3397528000
  3        1.013761800          1.130767000         0.7271586000
 L   1
  1       0.2700058000          1.000000000          1.000000000
 D   1
  1       0.800000000          1.00000000

O   8.0   19.503  13.002  17.336
 S   6
  1        5484.671700         0.1831100000E-02
  2        825.2349500         0.1395010000E-01
  3        188.0469600         0.6844510000E-01
  4        52.96450000         0.2327143000
  5        16.89757000         0.4701930000
  6        5.799635300         0.3585209000
 L   3
  1        15.53961600        -0.1107775000         0.7087430000E-01
  2        3.599933600        -0.1480263000         0.3397528000
  3        1.013761800          1.130767000         0.7271586000
 L   1
  1       0.2700058000          1.000000000          1.000000000
 D   1
  1       0.800000000          1.00000000

O   8.0   19.503  17.336  17.336
 S   6
  1        5484.671700         0.1831100000E-02
  2        825.2349500         0.1395010000E-01
  3        188.0469600         0.6844510000E-01
  4        52.96450000         0.2327143000
  5        16.89757000         0.4701930000
  6        5.799635300         0.3585209000
 L   3
  1        15.53961600        -0.1107775000         0.7087430000E-01
  2        3.599933600        -0.1480263000         0.3397528000
  3        1.013761800          1.130767000         0.7271586000
 L   1
  1       0.2700058000          1.000000000          1.000000000
 D   1
  1       0.800000000          1.00000000

O   8.0   17.336  15.169  17.336
 S   6
  1        5484.671700         0.1831100000E-02
  2        825.2349500         0.1395010000E-01
  3        188.0469600         0.6844510000E-01
  4        52.96450000         0.2327143000
  5        16.89757000         0.4701930000
  6        5.799635300         0.3585209000
 L   3
  1        15.53961600        -0.1107775000         0.7087430000E-01
  2        3.599933600        -0.1480263000         0.3397528000
  3        1.013761800          1.130767000         0.7271586000
 L   1
  1       0.2700058000          1.000000000          1.000000000
 D   1
  1       0.800000000          1.00000000

O   8.0   17.336  19.503  17.336
 S   6
  1        5484.671700         0.1831100000E-02
  2        825.2349500         0.1395010000E-01
  3        188.0469600         0.6844510000E-01
  4        52.96450000         0.2327143000
  5        16.89757000         0.4701930000
  6        5.799635300         0.3585209000
 L   3
  1        15.53961600        -0.1107775000         0.7087430000E-01
  2        3.599933600        -0.1480263000         0.3397528000
  3        1.013761800          1.130767000         0.7271586000
 L   1
  1       0.2700058000          1.000000000          1.000000000
 D   1
  1       0.800000000          1.00000000

O   8.0   21.670  15.169  17.336
 S   6
  1        5484.671700         0.1831100000E-02
  2        825.2349500         0.1395010000E-01
  3        188.0469600         0.6844510000E-01
  4        52.96450000         0.2327143000
  5        16.89757000         0.4701930000
  6        5.799635300         0.3585209000
 L   3
  1        15.53961600        -0.1107775000         0.7087430000E-01
  2        3.599933600        -0.1480263000         0.3397528000
  3        1.013761800          1.130767000         0.7271586000
 L   1
  1       0.2700058000          1.000000000          1.000000000
 D   1
  1       0.800000000          1.00000000

O   8.0   17.336  17.336  15.169
 S   6
  1        5484.671700         0.1831100000E-02
  2        825.2349500         0.1395010000E-01
  3        188.0469600         0.6844510000E-01
  4        52.96450000         0.2327143000
  5        16.89757000         0.4701930000
  6        5.799635300         0.3585209000
 L   3
  1        15.53961600        -0.1107775000         0.7087430000E-01
  2        3.599933600        -0.1480263000         0.3397528000
  3        1.013761800          1.130767000         0.7271586000
 L   1
  1       0.2700058000          1.000000000          1.000000000
 D   1
  1       0.800000000          1.00000000

O   8.0   17.336  17.336  19.503
 S   6
  1        5484.671700         0.1831100000E-02
  2        825.2349500         0.1395010000E-01
  3        188.0469600         0.6844510000E-01
  4        52.96450000         0.2327143000
  5        16.89757000         0.4701930000
  6        5.799635300         0.3585209000
 L   3
  1        15.53961600        -0.1107775000         0.7087430000E-01
  2        3.599933600        -0.1480263000         0.3397528000
  3        1.013761800          1.130767000         0.7271586000
 L   1
  1       0.2700058000          1.000000000          1.000000000
 D   1
  1       0.800000000          1.00000000

Mg  12.0  13.002  17.336  17.336

Mg  12.0  17.336  13.002  17.336

Mg  12.0  17.336  17.336  13.002

Mg  12.0  17.336  17.336  21.670

Mg  12.0  17.336  21.670  17.336

Mg  12.0  21.670  13.002  17.336

Mg  12.0  21.670  17.336  17.336

Mg  12.0  17.336  15.169  15.169

Mg  12.0  17.336  15.169  19.503

Mg  12.0  17.336  19.503  15.169

Mg  12.0  17.336  19.503  19.503

Mg  12.0  21.670  15.169  15.169

Mg  12.0  21.670  15.169  19.503

Mg  12.0  15.169  17.336  15.169

Mg  12.0  15.169  17.336  19.503

Mg  12.0  19.503  13.002  15.169

Mg  12.0  19.503  13.002  19.503

Mg  12.0  19.503  17.336  15.169

Mg  12.0  19.503  17.336  19.503

Mg  12.0  15.169  15.169  17.336

Mg  12.0  15.169  19.503  17.336

Mg  12.0  19.503  10.835  17.336

Mg  12.0  19.503  15.169  13.002

Mg  12.0  19.503  15.169  21.670

Mg  12.0  19.503  19.503  17.336

Mg  12.0  23.837  15.169  17.336

 $end

 $ECP
  FE-ECP GEN 10    2
 3      ----- d potential     -----
    -10.00000000  1      392.61497870
    -63.26675180  2       71.17569790
    -10.96133380  2       17.73202810
 5      ----- s-d potential   -----
      3.00000000  0      126.05718950
     18.17291370  1      138.12642510
    339.12311640  2       54.20988580
    317.10680120  2        9.28379660
   -207.34216490  2        8.62890820
 5      ----- p-d potential   -----
      5.00000000  0       83.17594900
      5.95359300  1      106.05599380
    294.26655270  2       42.82849370
    154.42446350  2        8.77018050
    -95.31642490  2        8.03978180
  FE-ECP
  O-ECP NONE
  O-ECP NONE
  O-ECP NONE
  O-ECP NONE
  O-ECP NONE
  O-ECP NONE
  O-ECP NONE
  O-ECP NONE
  O-ECP NONE
  O-ECP NONE
 MG-ECP GEN 10    2
 5      ----- d potential     -----
    -10.00000000  1      237.54848040
    -55.89939680  2       47.75203670
    -20.13919570  2       10.78378520
     -7.06791070  2        3.19921240
     -0.81331090  2        1.06369530
 5      ----- s-d potential   -----
      3.00000000  0      348.30086310
     44.00756600  1       59.46801330
    107.38613440  2       19.07675820
     35.82890880  2        5.29656130
     10.11434350  2        1.38673730
 6      ----- p-d potential   -----
      5.00000000  0     1256.87390850
    117.10536720  1      189.86088390
    420.59720730  2       54.69496310
    107.61229590  2       13.89901370
     29.10025760  2        3.95971810
      7.08755700  2        1.25527870
MG-ECP
MG-ECP
MG-ECP
MG-ECP
MG-ECP
MG-ECP
MG-ECP
MG-ECP
MG-ECP
MG-ECP
MG-ECP
MG-ECP
MG-ECP
MG-ECP
MG-ECP
MG-ECP
MG-ECP
MG-ECP
MG-ECP
MG-ECP
MG-ECP
MG-ECP
MG-ECP
MG-ECP
MG-ECP
 $END


