 $CONTRL SCFTYP=UHF MULT=6 COORD=UNIQUE ICHARG=30 MAXIT=200 $END
 $CONTRL PP=READ ISPHER=+1 $END
 $SCF    DIRSCF=.TRUE. SHIFT=.TRUE. $END
 $GUESS  GUESS=HUCKEL $END
 $DATA
  Fe 1 O 6 Al 13   
  C1
Fe  26.0      29.070  15.105  20.323 
 S   3
  1        6.422000000        -0.3927882000
  2        1.826000000         0.7712643000
  3       0.7135000000         0.4920228000
 S   4
  1        6.422000000         0.1786877000
  2        1.826000000        -0.4194032000
  3       0.7135000000        -0.4568185000
  4       0.1021000000          1.103504800
 S   1
  1       0.3630000000E-01      1.000000000
 P   3
  1        19.48000000        -0.4702820000E-01
  2        2.389000000         0.6248841000
  3       0.7795000000         0.4722542000
 P   1
  1       0.7400000000E-01      1.000000000
 P   1
  1       0.2200000000E-01      1.000000000
 D   4
  1        37.08000000         0.3290000000E-01
  2        10.10000000         0.1787418000
  3        3.220000000         0.4487657000
  4       0.9628000000         0.5876361000
 D   1
  1       0.2262000000          1.000000000

O  8.0      30.378  14.350  21.766 
 S   6
  1        5484.671700         0.1831100000E-02
  2        825.2349500         0.1395010000E-01
  3        188.0469600         0.6844510000E-01
  4        52.96450000         0.2327143000
  5        16.89757000         0.4701930000
  6        5.799635300         0.3585209000
 L   3
  1        15.53961600        -0.1107775000         0.7087430000E-01
  2        3.599933600        -0.1480263000         0.3397528000
  3        1.013761800          1.130767000         0.7271586000
 L   1
  1       0.2700058000          1.000000000          1.000000000
 D   1
  1       0.800000000          1.00000000

O  8.0      29.070  16.615  21.766 
 S   6
  1        5484.671700         0.1831100000E-02
  2        825.2349500         0.1395010000E-01
  3        188.0469600         0.6844510000E-01
  4        52.96450000         0.2327143000
  5        16.89757000         0.4701930000
  6        5.799635300         0.3585209000
 L   3
  1        15.53961600        -0.1107775000         0.7087430000E-01
  2        3.599933600        -0.1480263000         0.3397528000
  3        1.013761800          1.130767000         0.7271586000
 L   1
  1       0.2700058000          1.000000000          1.000000000
 D   1
  1       0.800000000          1.00000000

O  8.0      27.761  14.350  21.766 
 S   6
  1        5484.671700         0.1831100000E-02
  2        825.2349500         0.1395010000E-01
  3        188.0469600         0.6844510000E-01
  4        52.96450000         0.2327143000
  5        16.89757000         0.4701930000
  6        5.799635300         0.3585209000
 L   3
  1        15.53961600        -0.1107775000         0.7087430000E-01
  2        3.599933600        -0.1480263000         0.3397528000
  3        1.013761800          1.130767000         0.7271586000
 L   1
  1       0.2700058000          1.000000000          1.000000000
 D   1
  1       0.800000000          1.00000000

O  8.0      30.668  15.860  19.475 
 S   6
  1        5484.671700         0.1831100000E-02
  2        825.2349500         0.1395010000E-01
  3        188.0469600         0.6844510000E-01
  4        52.96450000         0.2327143000
  5        16.89757000         0.4701930000
  6        5.799635300         0.3585209000
 L   3
  1        15.53961600        -0.1107775000         0.7087430000E-01
  2        3.599933600        -0.1480263000         0.3397528000
  3        1.013761800          1.130767000         0.7271586000
 L   1
  1       0.2700058000          1.000000000          1.000000000
 D   1
  1       0.800000000          1.00000000

O  8.0      27.616  16.112  19.475 
 S   6
  1        5484.671700         0.1831100000E-02
  2        825.2349500         0.1395010000E-01
  3        188.0469600         0.6844510000E-01
  4        52.96450000         0.2327143000
  5        16.89757000         0.4701930000
  6        5.799635300         0.3585209000
 L   3
  1        15.53961600        -0.1107775000         0.7087430000E-01
  2        3.599933600        -0.1480263000         0.3397528000
  3        1.013761800          1.130767000         0.7271586000
 L   1
  1       0.2700058000          1.000000000          1.000000000
 D   1
  1       0.800000000          1.00000000

O  8.0      28.924  13.343  19.475 
 S   6
  1        5484.671700         0.1831100000E-02
  2        825.2349500         0.1395010000E-01
  3        188.0469600         0.6844510000E-01
  4        52.96450000         0.2327143000
  5        16.89757000         0.4701930000
  6        5.799635300         0.3585209000
 L   3
  1        15.53961600        -0.1107775000         0.7087430000E-01
  2        3.599933600        -0.1480263000         0.3397528000
  3        1.013761800          1.130767000         0.7271586000
 L   1
  1       0.2700058000          1.000000000          1.000000000
 D   1
  1       0.800000000          1.00000000

Al  13.0      26.163  15.105  18.627 

Al  13.0      30.523  12.588  18.627 

Al  13.0      30.523  17.622  18.627 

Al  13.0      26.163  15.105  22.614 

Al  13.0      30.523  12.588  22.614 

Al  13.0      30.523  17.622  22.614 

Al  13.0      29.070  15.105  23.210 

Al  13.0      27.616  12.588  18.031 

Al  13.0      27.616  17.622  18.031 

Al  13.0      31.977  15.105  18.031 

Al  13.0      27.616  12.588  20.918 

Al  13.0      27.616  17.622  20.918 

Al  13.0      31.977  15.105  20.918 

 $end

 $ECP
  FE-ECP GEN 10    2
 3      ----- d potential     -----
    -10.00000000  1      392.61497870
    -63.26675180  2       71.17569790
    -10.96133380  2       17.73202810
 5      ----- s-d potential   -----
      3.00000000  0      126.05718950
     18.17291370  1      138.12642510
    339.12311640  2       54.20988580
    317.10680120  2        9.28379660
   -207.34216490  2        8.62890820
 5      ----- p-d potential   -----
      5.00000000  0       83.17594900
      5.95359300  1      106.05599380
    294.26655270  2       42.82849370
    154.42446350  2        8.77018050
    -95.31642490  2        8.03978180
  O-ECP NONE
  O-ECP NONE
  O-ECP NONE
  O-ECP NONE
  O-ECP NONE
  O-ECP NONE
  AL-ECP GEN 10    2
 5      ----- d   potential   -----
    -10.00000000  1      304.72919260
    -63.80798370  2       61.52997680
    -22.89721740  2       13.92590060
     -8.00632320  2        4.14636260
     -0.88293450  2        1.37154430
 5      ----- s-d potential   -----
      3.00000000  0      467.84377560
     50.97056820  1       79.39922160
    143.87164600  2       25.40359670
     48.00557530  2        6.99546960
     14.01141800  2        1.78601290
 6      ----- p-d potential   -----
      5.00000000  0      776.27171900
     93.05954240  1      118.49922540
    266.76863290  2       34.41072760
     70.07258050  2        8.78595630
     17.22908390  2        2.34062280
      0.71053310  2        0.73983860
  AL-ECP
  AL-ECP
  AL-ECP
  AL-ECP
  AL-ECP
  AL-ECP
  AL-ECP
  AL-ECP
  AL-ECP
  AL-ECP
  AL-ECP
  AL-ECP 
 $END

